NAME: instance_1822
TYPE: TSP
DIMENSION: 20
EDGE_WEIGHT_TYPE: EUC_2D
NODE_COORD_SECTION
0 94.05 8.89
1 70.25 53.00
2 91.79 86.82
3 54.50 55.93
4 7.97 11.57
5 37.82 4.93
6 58.28 9.79
7 15.52 63.36
8 65.26 97.33
9 33.43 8.50
10 3.50 81.80
11 91.91 35.50
12 50.77 5.83
13 28.92 70.70
14 26.61 27.30
15 83.36 27.36
16 34.24 36.93
17 29.43 49.80
18 62.42 52.27
19 65.84 74.58
EOF
